
******************************************************************************
This program contains Ipopt, a library for large-scale nonlinear optimization.
 Ipopt is released as open source code under the Eclipse Public License (EPL).
         For more information visit http://projects.coin-or.org/Ipopt
******************************************************************************

This is Ipopt version 3.13.1, running with linear solver mumps.
NOTE: Other linear solvers might be more efficient (see Ipopt documentation).

Number of nonzeros in equality constraint Jacobian...:   568704
Number of nonzeros in inequality constraint Jacobian.:   244200
Number of nonzeros in Lagrangian Hessian.............:        0

Total number of variables............................:      965
                     variables with only lower bounds:       50
                variables with lower and upper bounds:      304
                     variables with only upper bounds:        0
Total number of equality constraints.................:      809
Total number of inequality constraints...............:      300
        inequality constraints with only lower bounds:        0
   inequality constraints with lower and upper bounds:        0
        inequality constraints with only upper bounds:      300

iter    objective    inf_pr   inf_du lg(mu)  ||d||  lg(rg) alpha_du alpha_pr  ls
   0  1.0000000e+02 5.00e+04 9.90e+01   0.0 0.00e+00    -  0.00e+00 0.00e+00   0
